c --- [ banner ] -------------------------------------------------------------
c 
c CaDiCaL Radically Simplified CDCL SAT Solver
c Copyright (c) 2016-2021 A. Biere, M. Fleury, N. Froleyks
c 
c Version 1.5.2 a5f15211db36c3956764e18194dd5bd63bf3b5e6
c g++ (GCC) 9.3.0 -Wall -Wextra -O3 -DNDEBUG
c Fri Oct 21 01:27:37 EDT 2022 Linux gra-login3 3.10.0-1160.66.1.el7.x86_64 x86_64
c 
c --- [ limit ] --------------------------------------------------------------
c 
c setting conflict limit to 200000 conflicts (due to '200000')
c 
c --- [ parsing input ] ------------------------------------------------------
c 
c reading DIMACS file from '33.cubes2473.adj'
c opening file to read '33.cubes2473.adj'
c found 'p cnf 6160 1595475' header
c parsed 1595475 clauses in 17.92 seconds process time
c closing file '33.cubes2473.adj'
c after reading 1457566775 bytes 1390.0 MB
c 
c --- [ options ] ------------------------------------------------------------
c 
c all options are set to their default value
c 
c --- [ solving ] ------------------------------------------------------------
c 
c time measured in process time since initialization
c 
c  seconds    reductions  redundant   irredundant
c          MB     restarts       trail       variables
c            level   conflicts       glue         remaining
c 
c * 17.92 1375  0 0   0    0    0  0% 0 1595422 2421 39%
c { 18.61 1418  0 0   0    0    0  0% 0 1595422 2421 39%
c i 19.94 1469 1184 0   1   18   17 40% 3 1595422 2420 39%
c i 20.55 1483 965 0   3   25   23 38% 8 1595422 2419 39%
c i 20.55 1483 928 0   3   26   23 38% 8 1595422 2418 39%
c i 20.64 1485 862 0   4   28   24 37% 7 1595422 2417 39%
c i 21.09 1490 635 0   7   40   30 34% 17 1595422 2402 39%
c i 21.65 1494 389 0  13   68   55 33% 24 1595422 2401 39%
c i 21.71 1494 369 0  15   72   58 32% 24 1595422 2394 39%
c i 21.73 1494 360 0  15   74   59 32% 23 1595422 2393 39%
c i 21.79 1495 352 0  16   77   59 32% 22 1595422 2389 39%
c i 22.65 1503 255 0  20  115   84 28% 23 1595422 2388 39%
c i 23.05 1503 234 0  22  129   97 28% 26 1595422 2387 39%
c i 23.12 1504 225 0  23  139  102 29% 26 1595422 2386 39%
c i 24.05 1509 167 0  41  217  161 29% 31 1595422 2385 39%
c i 24.25 1511 162 0  44  230  172 29% 30 1595422 2384 39%
c i 24.31 1511 162 0  44  234  173 29% 30 1595422 2383 39%
c i 24.33 1511 162 0  44  236  174 29% 30 1595422 2382 39%
c i 24.34 1511 161 0  44  241  178 29% 30 1595422 2381 39%
c i 24.36 1511 160 0  44  246  182 29% 29 1595422 2380 39%
c 
c  seconds     reductions  redundant    irredundant
c          MB      restarts       trail        variables
c             level   conflicts       glue          remaining
c 
c i 24.82 1513 142 0  46  293  220 28% 30 1595422 2379 39%
c - 28.27 1501 139 1  46  303  222 28% 30 302881 2379 39%
c i 28.61 1502 138 1  50  337  253 28% 33 302881 2378 39%
c i 28.73 1502 140 1  52  346  260 28% 33 302881 2377 39%
c i 29.51 1502 121 1  74  464  359 28% 35 302881 2376 39%
c i 29.61 1502 112 1  74  511  400 28% 33 302881 2375 39%
c i 29.73 1502 101 1  74  618  485 29% 33 302881 2374 39%
c i 29.75 1502 94 1  74  708  555 29% 33 302881 2373 39%
c i 29.76 1502 92 1  74  730  568 29% 33 302881 2372 39%
c i 29.84 1502 82 1  74  881  671 29% 32 302881 2371 38%
c i 29.85 1502 82 1  74  890  678 29% 32 302881 2370 38%
c i 29.85 1502 82 1  74  891  678 29% 32 302881 2369 38%
c i 29.88 1502 79 1  74  955  721 29% 32 302881 2368 38%
c i 29.89 1502 79 1  74  957  722 29% 32 302881 2367 38%
c i 29.89 1502 79 1  74  961  725 29% 32 302881 2366 38%
c } 29.91 1502 77 1  74 1003  761 29% 32 302881 2366 38%
c [ 29.91 1502  0 1  74 1003  761  0% 0 302881 2366 38%
c O 29.92 1502  1 1  74 1004  762 13% 1 302881 2366 38%
c i 29.93 1502  0 1  74 1005  762 14% 0 302881 2350 38%
c i 29.93 1502  0 1  74 1006  762 13% 0 302881 2300 37%
c 
c  seconds    reductions  redundant   irredundant
c          MB     restarts       trail       variables
c            level   conflicts       glue         remaining
c 
c i 30.44 1502 42 1  74 1115  851 29% 34 302881 2299 37%
c i 30.57 1502 41 1  74 1158  888 30% 34 302881 2298 37%
c i 30.61 1502 41 1  74 1190  913 30% 34 302881 2297 37%
c - 31.23 1644 41 2  74 1192  795 30% 34 301821 2297 37%
c i 31.55 1644 40 2  74 1268  852 30% 34 301821 2296 37%
c i 31.57 1644 40 2  74 1283  864 30% 33 301821 2295 37%
c i 31.60 1644 39 2  74 1313  887 30% 33 301821 2294 37%
c i 31.66 1644 38 2  74 1430  947 30% 33 301821 2293 37%
c i 31.68 1644 37 2  74 1468  965 30% 32 301821 2292 37%
c i 31.69 1644 37 2  74 1479  973 30% 32 301821 2291 37%
c i 31.75 1644 36 2  74 1581 1020 30% 32 301821 2290 37%
c i 31.79 1644 36 2  74 1636 1064 30% 31 301821 2289 37%
c i 31.82 1644 36 2  74 1696 1104 30% 31 301821 2288 37%
c i 31.98 1644 34 2  74 2006 1292 30% 30 301821 2287 37%
c i 32.00 1644 34 2  74 2039 1306 30% 30 301821 2286 37%
c i 32.02 1644 34 2  75 2121 1359 30% 29 301821 2285 37%
c i 32.07 1644 33 2  75 2239 1417 30% 29 301821 2284 37%
c i 32.07 1644 33 2  75 2248 1424 30% 29 301821 2283 37%
c - 32.49 1531 32 3  75 2523 1112 31% 29 301779 2283 37%
c i 32.91 1481 32 3  75 2690 1192 51% 28 301779 2282 37%
c 
c  seconds    reductions  redundant   irredundant
c          MB     restarts       trail       variables
c            level   conflicts       glue         remaining
c 
c i 32.91 1481 32 3  75 2710 1205 51% 28 301779 2281 37%
c i 33.02 1481 31 3  75 2957 1333 51% 28 301779 2280 37%
c ] 33.05 1481 32 3  75 3008 1368 51% 28 301779 2280 37%
c { 33.05 1481 77 3  75 3008 1368 78% 32 301779 2280 37%
c F 33.06 1481 77 3  75 3009 1369 78% 32 301779 2280 37%
c i 33.24 1481 76 3  75 3017 1376 78% 32 301779 2279 37%
c i 33.35 1481 75 3  75 3030 1387 78% 31 301779 2278 37%
c i 33.42 1481 75 3  75 3043 1396 77% 31 301779 2277 37%
c i 33.51 1481 73 3  75 3076 1421 76% 31 301779 2276 37%
c i 33.59 1481 72 3  75 3122 1456 75% 31 301779 2275 37%
c i 33.61 1481 71 3  75 3132 1465 75% 30 301779 2274 37%
c i 34.04 1481 72 3  87 3203 1527 73% 31 301779 2273 37%
c i 34.19 1481 73 3  90 3218 1538 72% 31 301779 2272 37%
c i 34.28 1481 73 3  92 3228 1546 72% 31 301779 2271 37%
c i 35.03 1481 72 3 105 3356 1659 69% 32 301779 2270 37%
c i 35.26 1481 71 3 109 3416 1706 68% 31 301779 2269 37%
c i 35.90 1481 65 3 121 3700 1936 65% 30 301779 2268 37%
c i 35.99 1481 63 3 121 3825 2034 64% 30 301779 2267 37%
c i 36.15 1481 62 3 122 3894 2090 63% 30 301779 2266 37%
c i 36.94 1481 64 3 142 3985 2176 62% 31 301779 2265 37%
c 
c  seconds    reductions  redundant   irredundant
c          MB     restarts       trail       variables
c            level   conflicts       glue         remaining
c 
c i 37.98 1481 65 3 169 4154 2288 60% 31 301779 2264 37%
c i 38.10 1481 64 3 172 4184 2311 60% 31 301779 2263 37%
c i 38.20 1481 64 3 172 4211 2331 59% 31 301779 2262 37%
c i 38.36 1481 63 3 172 4290 2405 59% 31 301779 2261 37%
c - 38.74 1475 63 4 172 4298 1792 59% 31 301713 2261 37%
c i 39.00 1475 63 4 173 4323 1811 59% 31 301713 2260 37%
c i 39.51 1475 62 4 173 4480 1938 58% 30 301713 2259 37%
c i 39.80 1475 60 4 173 4574 2015 58% 29 301713 2258 37%
c i 39.97 1475 59 4 173 4717 2138 57% 29 301713 2257 37%
c 2 40.79 1475 56 4 173 5004 3670 56% 28 301667 2244 36%
c p 44.90 1475 56 4 173 5004 6762 56% 28 301667 2182 35%
c d 45.43 1475 56 4 173 5004 6566 56% 28 301475 2180 35%
c # 47.04 1475 47 4 173 6011 7254 55% 25 301475 2180 35%
c - 47.94 1463 46 5 181 6517 2768 54% 25 301475 2180 35%
c } 48.33 1463 44 5 181 7011 3091 54% 24 301475 2180 35%
c [ 48.33 1463 32 5 181 7011 3091 51% 28 301475 2180 35%
c - 49.61 1344 30 6 183 9181 2985 51% 26 301475 2180 35%
c I 50.01 1344 30 6 183 10012 3475 51% 26 301475 2180 35%
c - 52.51 1465 41 7 185 12287 3740 48% 34 301475 2180 35%
c 2 54.05 1465 42 7 186 15006 7238 48% 35 301473 2180 35%
c 
c  seconds    reductions    redundant   irredundant
c          MB     restarts         trail       variables
c            level    conflicts        glue         remaining
c 
c p 55.77 1465 42 7 186 15006 10025 48% 35 301473 2180 35%
c d 55.87 1465 42 7 186 15006 10024 48% 35 301472 2179 35%
c ] 56.00 1465 42 7 186 15011 10029 48% 35 301472 2179 35%
c { 56.00 1465 44 7 186 15011 10029 54% 24 301472 2179 35%
c B 56.13 1465 44 7 186 15013 10031 54% 24 301472 2179 35%
c - 59.06 1344 43 8 282 15839 4774 53% 25 301472 2179 35%
c s 61.58 1344 37 8 305 18729 6828 51% 23 299540 2179 35%
c v 66.83 1344 37 8 305 18729 6828 51% 23 299507 2179 35%
c t 66.97 1344 37 8 305 18729 6801 51% 23 299496 2179 35%
c e 67.72 1346 37 8 305 18729 6594 51% 23 296871 835 14%
c s 67.82 1346 37 8 305 18729 6594 51% 23 295778 835 14%
c - 72.36 1346 39 9 431 19832 5299 69% 24 295778 835 14%
c i 73.83 1346 38 9 493 20880 6134 70% 24 295778 834 14%
c i 73.84 1346 38 9 493 20884 6136 70% 24 295778 825 13%
c W 75.09 1346 38 9 497 21015 6244 70% 24 295560 825 13%
c - 76.27 1346 35 10 509 24245 5271 72% 23 295560 825 13%
c F 77.45 1346 32 10 538 28017 7750 72% 22 295560 825 13%
c - 78.25 1346 31 11 544 29098 5880 71% 22 295560 825 13%
c 2 78.73 1346 31 11 547 30007 6965 71% 22 295557 825 13%
c p 82.58 1346 31 11 547 30007 8790 71% 22 295557 824 13%
c 
c  seconds    reductions    redundant   irredundant
c          MB      restarts        trail       variables
c            level     conflicts       glue        remaining
c 
c d 82.80 1346 31 11 547 30007 8731 71% 22 295542 823 13%
c } 83.51 1346 30 11 559 31017 9365 72% 22 295542 823 13%
c [ 83.51 1346 42 11 559 31017 9365 130% 35 295542 823 13%
c ] 83.53 1346 42 11 559 31079 9399 130% 35 295542 823 13%
c 1 83.53 1346 42 11 559 31079 9399 130% 35 295542 823 13%
c 
c --- [ writing output ] -----------------------------------------------------
c 
c writing simplified CNF to DIMACS file 'simp/33.cubes2473.adj.simp1'
c * 83.53 1346 42 11 559 31079 9399 130% 35 295542 823 13%
c opening file to write 'simp/33.cubes2473.adj.simp1'
c writing 'p cnf 6160 295542' header
c closing file 'simp/33.cubes2473.adj.simp1'
c after writing 136484540 bytes 130.2 MB
c wrote 295542 clauses in 0.85 seconds process time
c 
c --- [ writing extension ] --------------------------------------------------
c 
c writing extension stack to 'simp/33.cubes2473.adj.ext1'
c opening file to write 'simp/33.cubes2473.adj.ext1'
c closing file 'simp/33.cubes2473.adj.ext1'
c after writing 87425 bytes 0.1 MB
c wrote 3896 witnesses in 0.00 seconds process time
c 
c --- [ result ] -------------------------------------------------------------
c 
s SATISFIABLE
c 
c --- [ run-time profiling ] -------------------------------------------------
c 
c process time taken by individual solving procedures
c (percentage relative to process time for solving)
c 
c        47.40   72.25% search
c        37.36   56.95% unstable
c        18.20   27.74% simplify
c        17.92   27.32% parse
c         9.68   14.75% probe
c         8.92   13.60% stable
c         5.35    8.16% vivify
c         1.39    2.12% elim
c         0.69    1.05% lucky
c         0.43    0.66% walk
c         0.20    0.30% subsume
c         0.12    0.18% ternary
c   =================================
c        65.60   77.75% solve
c 
c last line shows process time for solving
c (percentage relative to total process time)
c 
c --- [ statistics ] ---------------------------------------------------------
c 
c chronological:              6139        19.75 %  of conflicts
c conflicts:                 31079       473.76    per second
c decisions:                 78889      1202.57    per second
c eliminated:                 1344        21.82 %  of all variables
c fixed:                       834        13.54 %  of all variables
c learned:                   30383        97.76 %  per conflict
c learned_lits:            5466997       100.00 %  learned literals
c minimized:                     0         0.00 %  learned literals
c shrunken:                3609260        66.02 %  learned literals
c minishrunken:             319115         5.84 %  learned literals
c propagations:            3493825         0.05 M  per second
c reduced:                   14401        46.34 %  per conflict
c rephased:                      7      4439.86    interval
c restarts:                    559        55.60    interval
c stabilizing:                   3        32.39 %  of conflicts
c substituted:                  15         0.24 %  of all variables
c subsumed:                  11642         0.34 %  of all clauses
c strengthened:               4124         0.12 %  of all clauses
c ternary:                    3160         0.68 %  of resolved
c vivified:                     57         0.00 %  of all clauses
c walked:                        1     31079.00    interval
c weakened:                   3062         3.06    average size
c 
c seconds are measured in process time for solving
c 
c --- [ resources ] ----------------------------------------------------------
c 
c total process time since initialization:        84.37    seconds
c total real time since initialization:           85.07    seconds
c maximum resident set size of process:         1672.49    MB
c 
c --- [ shutting down ] ------------------------------------------------------
c 
c exit 10
WARNING! DIMACS header mismatch: wrong number of variables.
============================[ Problem Statistics ]=============================
|                                                                             |
|  Number of variables:          3251                                         |
|  Number of clauses:          295544                                         |
|  Parse time:                   1.93 s                                       |
|  Simplification time:          0.06 s                                       |
|                                                                             |
============================[ Search Statistics ]====================================================
| Conflicts |          ORIGINAL         |          LEARNT          | Num Sols |      SUBGRAPHS      |
|           |    Vars  Clauses Literals |    Limit  Clauses Lit/Cl |          | Canonical Noncanon. |
=====================================================================================================
|       171 |    3158   295615 29318906 |     2000      171     75 |        0 |        52        71 |
|       321 |    3158   295615 29318906 |     2000      321     81 |        0 |        61        71 |
|       578 |    3158   295647 29319411 |     2000      578     82 |        0 |        77       103 |
|      1096 |    3158   295828 29322101 |     2000     1096     77 |        0 |       103       284 |
|      1928 |    3158   296154 29326400 |     2000     1928     69 |        0 |       176       610 |
|      2998 |    3158   296465 29330305 |     3602     2000     41 |        0 |       281       921 |
|      4171 |    3158   296499 29330972 |     3602     3173     68 |        0 |       317       955 |
|      6163 |    3158   296783 29336149 |     5004     3367     50 |        0 |       484      1239 |
|      8806 |    3158   296864 29337861 |     6303     3509     48 |        0 |       548      1320 |
|     12971 |    3158   297185 29342789 |     7553     4524     42 |        0 |       625      1641 |
|     20298 |    3158   298746 29368287 |     8778     8076     53 |        0 |       842      3202 |
|     29114 |    3158   298913 29371621 |    11199     7513     49 |        0 |       928      3369 |
|     43159 |    3158   299984 29388554 |    13608     9767     41 |        0 |      1314      4440 |
|     64304 |    3158   301668 29413879 |    17219     8723     23 |        0 |      1814      6124 |
|     93775 |    3158   301947 29418860 |    20812    10587     30 |        0 |      1976      6403 |
|    138024 |    3158   302407 29427192 |    24410    21834     60 |        0 |      2251      6863 |
|    204712 |    3158   303411 29446957 |    30412    21524     49 |        0 |      2878      7867 |
|    305429 |    3158   305602 29492670 |    37612    22041     40 |        0 |      4428     10058 |
|    456024 |    3158   308408 29541835 |    46011    28435     42 |        0 |      5554     12864 |
|    682458 |    3158   313159 29623593 |    55614    54072     60 |        0 |      7630     17615 |
|   1017366 |    3158   315542 29670296 |    68822    50188     56 |        0 |      9510     19998 |
|   1519536 |    3158   318924 29743197 |    84412    58348     48 |        0 |     11885     23380 |
|   2271336 |    3157   322536 29848552 |   103618    62954     50 |        0 |     14551     26998 |
=====================================================================================================
Number of solutions   : 0
Canonical subgraphs   : 18057          (7 /sec)
          order  3    : 1              (250000 /sec)
          order  4    : 1              (1000000 /sec)
          order  5    : 1              (250000 /sec)
          order  6    : 1              (50000 /sec)
          order  7    : 1              (8197 /sec)
          order  8    : 2              (1254 /sec)
          order  9    : 4              (218 /sec)
          order 10    : 9              (41 /sec)
          order 11    : 35             (11 /sec)
          order 12    : 185            (5 /sec)
          order 13    : 877            (5 /sec)
          order 14    : 1540           (9 /sec)
          order 15    : 2482           (7 /sec)
          order 16    : 8236           (7 /sec)
          order 17    : 2635           (6 /sec)
          order 18    : 1291           (6 /sec)
          order 19    : 354            (7 /sec)
          order 20    : 206            (7 /sec)
          order 21    : 196            (7 /sec)
          order 22    : 0              (-nan /sec)
Noncanonical subgraphs: 36165          (111 /sec)
          order  3    : 0              (-nan /sec)
          order  4    : 0              (-nan /sec)
          order  5    : 0              (-nan /sec)
          order  6    : 0              (-nan /sec)
          order  7    : 0              (-nan /sec)
          order  8    : 0              (-nan /sec)
          order  9    : 0              (-nan /sec)
          order 10    : 0              (-nan /sec)
          order 11    : 0              (-nan /sec)
          order 12    : 0              (-nan /sec)
          order 13    : 1790           (16228 /sec)
          order 14    : 10996          (2280 /sec)
          order 15    : 5973           (367 /sec)
          order 16    : 3951           (420 /sec)
          order 17    : 13160          (50 /sec)
          order 18    : 95             (21 /sec)
          order 19    : 0              (-nan /sec)
          order 20    : 0              (-nan /sec)
          order 21    : 0              (-nan /sec)
Canonicity checking   : 2678.32 s
Noncanonicity checking: 326.857 s
Total canonicity time : 3005.18 s
database reductions   : 102
restarts              : 5993
conflicts             : 3338919        (764 /sec)
decisions             : 4124199        (0.00 % random) (944 /sec)
propagations          : 145834834      (33368 /sec)
conflict literals     : 353093955      (53.89 % deleted)
actual reward         : 0.292365
Memory used           : 390.00 MB
CPU time              : 4370.53 s

UNSATISFIABLE
